61
120
84	19
83	16
82	18
81	16
80	18
79	27
78	23
77	31
76	29
75	10
74	16
73	25
72	17
71	15
70	17
69	15
68	21
67	14
66	12
65	22
64	12
63	14
62	15
61	23
60	15
59	15
58	21
57	9
56	11
55	10
54	11
53	12
52	14
51	12
50	12
49	12
48	22
47	18
46	14
45	22
44	13
43	12
42	13
41	18
40	13
39	15
38	13
37	13
36	15
35	15
34	16
33	18
32	13
31	10
30	15
29	21
28	19
27	15
26	20
25	21
24	17
